config:eval_tsp="2022-12-08 19:07:06"
config:arch=arch5
config:num_train_worker=3
config:num_sample_worker=1
config:sample_type=khop2
config:root_path=/nvme/graph-learning-copy/samgraph/
config:dataset=mag240m-homo
config:pipeline=False
config:cache_policy=coll_cache_asymm_link
config:cache_percentage=0.01
config:num_epoch=4
config:batch_size=4000
config:num_hidden=256
config:max_sampling_jobs=1
config:max_copying_jobs=1
config:barriered_epoch=1
config:presample_epoch=2
config:omp_thread_num=13
config:unsupervised=False
config:amp=True
config:rolling=0
config:fanout=[25, 10]
config:lr=0.003
config:dropout=0.5
config:single_gpu=False
config:max_num_step=100000
config:validate_configs=False
config:report_acc=0
config:dataset_path=/nvme/graph-learning-copy/samgraph/mag240m-homo
config:torch_thread_num=13
config:train_workers=['cuda:0', 'cuda:1', 'cuda:2']
config:sample_workers=['cuda:3']
config:num_fanout=2
config:num_layer=2
config:_run_mode=RunMode.FGNN
config:_log_level=warn
config:_profile_level=3
config:_empty_feat=25
config:_arch=5
config:_sample_type=5
config:_cache_policy=13
test_result:init:input_scale_factor=1.1
0 :  {link #0 : 1}, {link #1 : 2},
1 :  {link #0 : 2}, {link #1 : 0},
2 :  {link #0 : 0}, {link #1 : 1},
0 :  {link #0 : 1}, {link #1 : 2},
1 :  {link #0 : 2}, {link #1 : 0},
2 :  {link #0 : 0}, {link #1 : 1},
0 :  {link #0 : 1}, {link #1 : 2},
1 :  {link #0 : 2}, {link #1 : 0},
2 :  {link #0 : 0}, {link #1 : 1},
Set parameter WLSAccessID
Set parameter WLSSecret
Set parameter LicenseID
Set parameter TimeLimit to value 200
Set parameter MIPGap to value 0.05
Set parameter GomoryPasses to value 0
Set parameter Aggregate to value 0
Set parameter LogFile to value "cppsolver.log"
Set parameter Threads to value 26
Academic license - for non-commercial use only - registered to xiaoniu.sxn@sjtu.edu.cn
Gurobi Optimizer version 9.5.1 build v9.5.1rc2 (linux64)
Thread count: 40 physical cores, 80 logical processors, using up to 26 threads
Academic license - for non-commercial use only - registered to xiaoniu.sxn@sjtu.edu.cn
Optimize a model with 21267 rows, 10124 columns and 63771 nonzeros
Model fingerprint: 0x1176fbf9
Variable types: 4 continuous, 10120 integer (10120 binary)
Coefficient statistics:
  Matrix range     [8e-04, 2e+02]
  Objective range  [1e+00, 1e+00]
  Bounds range     [1e+00, 1e+00]
  RHS range        [1e+00, 8e+01]
Found heuristic solution: objective 3931.7876236
Presolve removed 12146 rows and 0 columns
Presolve time: 0.13s
Presolved: 9121 rows, 10124 columns, 37457 nonzeros
Found heuristic solution: objective 3931.7875952
Variable types: 4 continuous, 10120 integer (10120 binary)

Root relaxation: objective 6.173894e+02, 7643 iterations, 0.20 seconds (0.09 work units)

    Nodes    |    Current Node    |     Objective Bounds      |     Work
 Expl Unexpl |  Obj  Depth IntInf | Incumbent    BestBd   Gap | It/Node Time

     0     0  617.38935    0   13 3931.78760  617.38935  84.3%     -    0s
H    0     0                     620.0149207  617.38935  0.42%     -    0s

Explored 1 nodes (10666 simplex iterations) in 0.58 seconds (0.28 work units)
Thread count was 26 (of 80 available processors)

Solution count 3: 620.015 3931.79 3931.79 

Optimal solution found (tolerance 5.00e-02)
Best objective 6.200149206518e+02, best bound 6.173893514766e+02, gap 0.4235%
coll_cache:optimal_local_rate=0.327534,0.304325,0.232075,
coll_cache:optimal_remote_rate=0.536399,0.559609,0.631859,
coll_cache:optimal_cpu_rate=0.136066,0.136066,0.136066,
z=620.015
test_result:init:feat_nbytes=375030526464
test_result:init:cache_nbytes=3780900864
test_result:init:feat_nbytes=375030526464
test_result:init:cache_nbytes=3774157824
test_result:init:feat_nbytes=375030526464
test_result:init:cache_nbytes=3780566016
0 :  {link #0 : 1}, {link #1 : 2},
1 :  {link #0 : 2}, {link #1 : 0},
2 :  {link #0 : 0}, {link #1 : 1},
0 :  {link #0 : 1}, {link #1 : 2},
1 :  {link #0 : 2}, {link #1 : 0},
2 :  {link #0 : 0}, {link #1 : 1},
0 :  {link #0 : 1}, {link #1 : 2},
1 :  {link #0 : 2}, {link #1 : 0},
2 :  {link #0 : 0}, {link #1 : 1},
test_result:init:cache_nbytes=0
test_result:init:cache_nbytes=0
test_result:init:cache_nbytes=0
[Train  Worker 1/3] Started with PID 176207(Tesla V100-SXM2-16GB)
[Train  Worker 1] run train for 4 epochs with 279 steps
[Train  Worker 1] Avg Epoch Time 2.3369 | Train Total Time(Profiler) 1.2320 | Copy Time 1.0959
[Train  Worker 0/3] Started with PID 176205(Tesla V100-SXM2-16GB)
[Train  Worker 0] run train for 4 epochs with 279 steps
Epoch 00000 | Epoch Time 4.0606 | Total Train Time(Profiler) 2.9425 | Copy Time 1.1072
Epoch 00001 | Epoch Time 2.3485 | Total Train Time(Profiler) 1.2376 | Copy Time 1.1007
Epoch 00002 | Epoch Time 2.3237 | Total Train Time(Profiler) 1.2338 | Copy Time 1.0798
Epoch 00003 | Epoch Time 2.3387 | Total Train Time(Profiler) 1.2306 | Copy Time 1.0976
[Train  Worker 0] Avg Epoch Time 2.3370 | Train Total Time(Profiler) 1.2340 | Copy Time 1.0927
[Train  Worker 2/3] Started with PID 176208(Tesla V100-SXM2-16GB)
[Train  Worker 2] run train for 4 epochs with 279 steps
[Train  Worker 2] Avg Epoch Time 2.3368 | Train Total Time(Profiler) 1.2367 | Copy Time 1.0906
    [Step(average) Profiler Level 1 E3 S278]
        L1  sample           0.002330 | send           0.000650
        L1  recv             0.000000 | copy           0.000000 | convert time 0.000000 | train  0.000000
        L1  feature nbytes 0.00 Bytes | label nbytes 0.00 Bytes
        L1  id nbytes      0.00 Bytes | graph nbytes 0.00 Bytes
        L1  miss nbytes    0.00 Bytes | remote nbytes 0.00 Bytes
        L1  num nodes          575515 | num samples      744368
    [Step(average) Profiler Level 2 E3 S278]
        L2  shuffle     0.000131 | core sample  0.000600 | id remap        0.001502
        L2  graph copy  0.000000 | id copy      0.000000 | cache feat copy 0.000000
        L2  last layer sample time 0.000244 | size 33453.426523
    [Step(average) Profiler Level 3 E3 S278]
        L3  khop sample coo  0.000379 | khop sort coo      0.000000 | khop count edge     0.000031 | khop compact edge 0.000153
        L3  walk sample coo  0.000000 | walk topk total    0.000000 | walk topk step1     0.000000 | walk topk step2   0.000000
        L3  walk topk step3  0.000000 | walk topk step4    0.000000 | walk topk step5     0.000000
        L3  walk topk step6  0.000000 | walk topk step7    0.000000
        L3  remap unique     0.000000 | remap populate     0.001274 | remap mapnode       0.000000 | remap mapedge     0.000228
        L3  cache get_index  0.000000 | cache copy_index   0.000000 | cache extract_miss  0.000000
        L3  cache copy_miss  0.000000 | cache combine_miss 0.000000 | cache combine cache 0.000000 | cache combine remote 0.000000
        L3  label extract  0.000000
    [Init Profiler Level 1]
        L1  init     5.6288 | sampler init    15.6379 | trainer init 0.0000
    [Init Profiler Level 2]
        L2  load ds         8.8293 | init queue           6.2361
        L2  presample       4.5037 | build interal ds     1.6948
        L2  build cache     0.0000
    [Init Profiler Level 3]
        L3  load dataset: mmap     5.6249 | copy         3.2044
        L3  dist queue: alloc      0.0017 | pin          6.2344 | push     0.0000
        L3  presample: init        0.6446
        L3  presample: sample      1.3097 | copy         0.1053
        L3  presample: count       1.0867 | sort         0.5741
        L3  presample: reset       0.0010 | get rank     0.0747
        L3  internal: cuda ctx     1.4514 | cuda stream     0.2391
[Sample Worker 0/1] Started with PID 176204(Tesla V100-SXM2-16GB)
[Sample Worker 0] run sample for 4 epochs with 279 steps
[Sample Worker 0] Avg Sample Total Time 0.8334 | Sampler Total Time(Profiler) 0.8312
test_result:sample_time=0.6499
test_result:get_cache_miss_index_time=0.0000
test_result:enqueue_samples_time=0.1813
test_result:epoch_time:sample_total=0.8334
[CUDA] cuda0: usage: 11.02 GB
[SAM] cuda0 data alloc        : 0.00 Bytes
[SAM] cuda0 workspace         : 1.84 GB
[SAM] cuda0 workspace reserve : 937.41 MB
[SAM] cuda0 total             : 1.84 GB
    [Step(average) Profiler Level 1 E3 S278]
        L1  sample           0.000000 | send           0.000000
        L1  recv             0.000901 | copy           0.011754 | convert time 0.000462 | train  0.012810
        L1  feature nbytes  843.04 MB | label nbytes   31.25 KB
        L1  id nbytes      0.00 Bytes | graph nbytes 0.00 Bytes
        L1  miss nbytes     117.50 MB | remote nbytes  483.70 MB
        L1  num nodes               0 | num samples           0
    [Step(average) Profiler Level 2 E3 S278]
        L2  shuffle     0.000000 | core sample  0.000000 | id remap        0.000000
        L2  graph copy  0.000004 | id copy      0.000000 | cache feat copy 0.010849
        L2  last layer sample time 0.000000 | size 0.000000
    [Step(average) Profiler Level 3 E3 S278]
        L3  khop sample coo  0.000000 | khop sort coo      0.000000 | khop count edge     0.000000 | khop compact edge 0.000000
        L3  walk sample coo  0.000000 | walk topk total    0.000000 | walk topk step1     0.000000 | walk topk step2   0.000000
        L3  walk topk step3  0.000000 | walk topk step4    0.000000 | walk topk step5     0.000000
        L3  walk topk step6  0.000000 | walk topk step7    0.000000
        L3  remap unique     0.000000 | remap populate     0.000000 | remap mapnode       0.000000 | remap mapedge     0.000000
        L3  cache get_index  0.000423 | cache copy_index   0.000000 | cache extract_miss  0.000000
        L3  cache copy_miss  0.000000 | cache combine_miss 0.010288 | cache combine cache 0.000817 | cache combine remote 0.006775
        L3  label extract  0.000124
    [Init Profiler Level 1]
        L1  init     5.6288 | sampler init     0.0000 | trainer init 85.6485
    [Init Profiler Level 2]
        L2  load ds         5.6249 | init queue           6.2171
        L2  presample       0.0000 | build interal ds     1.4053
        L2  build cache    78.0237
    [Init Profiler Level 3]
        L3  load dataset: mmap     5.6249 | copy         0.0000
        L3  dist queue: alloc      0.0017 | pin          6.2154 | push     0.0000
        L3  presample: init        0.0000
        L3  presample: sample      0.0000 | copy         0.0000
        L3  presample: count       0.0000 | sort         0.0000
        L3  presample: reset       0.0000 | get rank     0.0000
        L3  internal: cuda ctx     1.4053 | cuda stream     0.0001
|===========================================================================|
|                  PyTorch CUDA memory summary, device ID 0                 |
|---------------------------------------------------------------------------|
|            CUDA OOMs: 0            |        cudaMalloc retries: 0         |
|===========================================================================|
|        Metric         | Cur Usage  | Peak Usage | Tot Alloc  | Tot Freed  |
|---------------------------------------------------------------------------|
| Allocated memory      |   28200 KB |  398288 KB |  429872 MB |  429844 MB |
|       from large pool |   19305 KB |  395459 KB |  425855 MB |  425836 MB |
|       from small pool |    8895 KB |   11212 KB |    4016 MB |    4007 MB |
|---------------------------------------------------------------------------|
| Active memory         |   28201 KB |  398288 KB |  429872 MB |  429844 MB |
|       from large pool |   19305 KB |  395459 KB |  425855 MB |  425836 MB |
|       from small pool |    8896 KB |   11212 KB |    4016 MB |    4007 MB |
|---------------------------------------------------------------------------|
| GPU reserved memory   |  485376 KB |  485376 KB |  485376 KB |       0 B  |
|       from large pool |  471040 KB |  471040 KB |  471040 KB |       0 B  |
|       from small pool |   14336 KB |   14336 KB |   14336 KB |       0 B  |
|---------------------------------------------------------------------------|
| Non-releasable memory |   43479 KB |  398955 KB |  372212 MB |  372169 MB |
|       from large pool |   42135 KB |  396726 KB |  367823 MB |  367782 MB |
|       from small pool |    1344 KB |    4673 KB |    4388 MB |    4387 MB |
|---------------------------------------------------------------------------|
| Allocations           |      42    |      57    |   43935    |   43893    |
|       from large pool |       7    |      18    |   19347    |   19340    |
|       from small pool |      35    |      41    |   24588    |   24553    |
|---------------------------------------------------------------------------|
| Active allocs         |      43    |      57    |   43935    |   43892    |
|       from large pool |       7    |      18    |   19347    |   19340    |
|       from small pool |      36    |      41    |   24588    |   24552    |
|---------------------------------------------------------------------------|
| GPU reserved segments |      14    |      14    |      14    |       0    |
|       from large pool |       7    |       7    |       7    |       0    |
|       from small pool |       7    |       7    |       7    |       0    |
|---------------------------------------------------------------------------|
| Non-releasable allocs |      14    |      26    |   20964    |   20950    |
|       from large pool |       4    |      13    |   11662    |   11658    |
|       from small pool |      10    |      19    |    9302    |    9292    |
|---------------------------------------------------------------------------|
| Oversize allocations  |       0    |       0    |       0    |       0    |
|---------------------------------------------------------------------------|
| Oversize GPU segments |       0    |       0    |       0    |       0    |
|===========================================================================|

test_result:epoch_time:copy_time=1.0927
test_result:convert_time=0.0448
test_result:train_time=1.1892
test_result:epoch_time:train_total=1.2340
test_result:cache_percentage=0.0100
test_result:cache_hit_rate=1.0000
test_result:run_time=14.4212
